8
0,115,168,103,429,457,293,234
115,0,499,188,142,267,455,275
168,499,0,348,280,295,174,475
103,188,348,0,222,442,338,117
429,142,280,222,0,280,385,445
457,267,295,442,280,0,448,294
293,455,174,338,385,448,0,256
234,275,475,117,445,294,256,0
2
7